n_res = 4;
rc = [ 16, 10, 16, 21 ];
n_tasks = 30;
d = [ 2, 10, 4, 2, 1, 4, 1, 10, 10, 6, 6, 1, 3, 3, 7, 7, 9, 1, 9, 3, 2, 7, 9, 1, 5, 9, 7, 10, 3, 8 ];
rr = [| 9, 10, 0, 3, 8, 0, 0, 0, 0, 0, 0, 0, 4, 6, 0, 8, 8, 1, 0, 9, 1, 6, 0, 0, 3, 7, 3, 3, 0, 2
      | 4, 0, 0, 0, 0, 4, 4, 0, 0, 4, 0, 0, 7, 0, 0, 2, 9, 2, 0, 1, 0, 2, 0, 2, 0, 2, 0, 0, 7, 0
      | 0, 0, 0, 9, 8, 7, 9, 8, 3, 0, 4, 3, 0, 9, 9, 2, 0, 0, 0, 0, 1, 0, 4, 7, 0, 0, 0, 0, 0, 0
      | 0, 4, 7, 0, 1, 5, 0, 9, 0, 0, 1, 7, 8, 4, 0, 0, 0, 7, 5, 0, 7, 0, 9, 0, 4, 0, 7, 7, 0, 10 |];
suc = [ { 4 },
       { 5, 22, 30 },
       { 19, 21, 26 },
       { 7, 11, 17 },
       { 6, 8, 20 },
       { 9, 10, 12 },
       { 14 },
       { 10, 19 },
       { 11, 16, 26 },
       { 13, 15, 25 },
       { 18 },
       { 16, 17, 21 },
       { 17, 21, 27 },
       { 15, 18, 23 },
       { 16, 27 },
       { 29 },
       { 26 },
       { 19 },
       { 24 },
       { 25 },
       { 28 },
       { 24, 28 },
       { 24, 30 },
       { 25 },
       { 27 },
       { 28, 29 },
       { 29 },
       {  },
       {  },
       {  } ];
t_max = 160;
deadline = [| 28, 1, 3
 | 24, 1, 2
 | 58, 4, 0
 | 67, 2, 4
 | 11, 4, 2
 | 19, 4, 4
 | 71, 3, 3
 | 75, 4, 1
 | 21, 3, 0
 | 48, 1, 4
 | 16, 3, 4
 | 17, 1, 3
 | 41, 2, 1
 | 20, 4, 2
 | 2, 3, 2
 | 32, 3, 4
 | 60, 2, 2
 | 50, 1, 0
 | 69, 1, 3
 | 25, 3, 0
 | 6, 0, 1
 | 2, 0, 0
 | 39, 2, 1
 | 17, 4, 1
 | 40, 1, 4
 | 52, 3, 3
 | 18, 4, 3
 | 55, 0, 4
 | 6, 4, 0
 | 36, 0, 3 |];
